32	0

0	1	2
8	1	3
7	1	4
4	1	5
9	1	6
3	1	7
3	1	8
10	1	9
6	1	10
3	2	11	12
1	1	13
9	1	13
5	1	14
4	1	15
8	1	16
2	1	17
3	1	18
3	1	19
5	1	20
6	1	21
2	1	22
5	1	23
5	1	24
7	2	25	26
9	1	27
2	1	27
8	1	28
7	2	29	30
7	1	31
7	1	31
6	1	32
0	0
